(set-option :produce-models true)
(declare-const GEN1 Real)
(declare-const BAV2 Bool)
(set-option :auto-config true)
(declare-fun a () Real)
(assert (> GEN1 a))
(assert (= BAV2 (> GEN1 a)))
(check-sat)
(get-model)